50
Lattice="12.30000000 0.00000000 0.00000000 6.15000000 10.65211247 0.00000000 0.00000000 0.00000000 25.00000000" system_id=SURF_Gr5x5_clean_v01 planned_total_charge=0 periodicity=slab_xy_vacuum_z geometry_status=DERIVADO_POR_SIMETRIA model_role=parent_surface vacancy_status=no_graphene_vacancy anchor_claim=forbidden
C 0.00000000 0.00000000 12.50000000
C 1.23000000 0.71014083 12.50000000
C 1.23000000 2.13042249 12.50000000
C 2.46000000 2.84056332 12.50000000
C 2.46000000 4.26084499 12.50000000
C 3.69000000 4.97098582 12.50000000
C 3.69000000 6.39126748 12.50000000
C 4.92000000 7.10140831 12.50000000
C 4.92000000 8.52168997 12.50000000
C 6.15000000 9.23183080 12.50000000
C 2.46000000 0.00000000 12.50000000
C 3.69000000 0.71014083 12.50000000
C 3.69000000 2.13042249 12.50000000
C 4.92000000 2.84056332 12.50000000
C 4.92000000 4.26084499 12.50000000
C 6.15000000 4.97098582 12.50000000
C 6.15000000 6.39126748 12.50000000
C 7.38000000 7.10140831 12.50000000
C 7.38000000 8.52168997 12.50000000
C 8.61000000 9.23183080 12.50000000
C 4.92000000 0.00000000 12.50000000
C 6.15000000 0.71014083 12.50000000
C 6.15000000 2.13042249 12.50000000
C 7.38000000 2.84056332 12.50000000
C 7.38000000 4.26084499 12.50000000
C 8.61000000 4.97098582 12.50000000
C 8.61000000 6.39126748 12.50000000
C 9.84000000 7.10140831 12.50000000
C 9.84000000 8.52168997 12.50000000
C 11.07000000 9.23183080 12.50000000
C 7.38000000 0.00000000 12.50000000
C 8.61000000 0.71014083 12.50000000
C 8.61000000 2.13042249 12.50000000
C 9.84000000 2.84056332 12.50000000
C 9.84000000 4.26084499 12.50000000
C 11.07000000 4.97098582 12.50000000
C 11.07000000 6.39126748 12.50000000
C 12.30000000 7.10140831 12.50000000
C 12.30000000 8.52168997 12.50000000
C 13.53000000 9.23183080 12.50000000
C 9.84000000 0.00000000 12.50000000
C 11.07000000 0.71014083 12.50000000
C 11.07000000 2.13042249 12.50000000
C 12.30000000 2.84056332 12.50000000
C 12.30000000 4.26084499 12.50000000
C 13.53000000 4.97098582 12.50000000
C 13.53000000 6.39126748 12.50000000
C 14.76000000 7.10140831 12.50000000
C 14.76000000 8.52168997 12.50000000
C 15.99000000 9.23183080 12.50000000
