SystemName Birnessite Mn O reference fixture
SystemLabel m1_reference
NumberOfAtoms 2
NumberOfSpecies 2
%block ChemicalSpeciesLabel
  1 25 Mn
  2 8 O
%endblock ChemicalSpeciesLabel
LatticeConstant 1.0 Ang
%block LatticeVectors
  5.0 0.0 0.0
  0.0 5.0 0.0
  0.0 0.0 5.0
%endblock LatticeVectors
AtomicCoordinatesFormat Ang
%block AtomicCoordinatesAndAtomicSpecies
  0.0 0.0 0.0 1
  1.0 1.0 1.0 2
%endblock AtomicCoordinatesAndAtomicSpecies
Mesh.Cutoff 250 Ry
%block kgrid.MonkhorstPack
  2 0 0 0.0
  0 2 0 0.0
  0 0 1 0.0
%endblock kgrid.MonkhorstPack
NetCharge 0
Spin polarized
MD.TypeOfRun CG
MD.Steps 0
